20
90.0
0 19 78.26 31.0
1 18 36.56 12.39
2 17 38.41 13.18
3 16 37.19 13.44
4 15 17.87 23.47
5 14 9.93 12.14
6 13 9.08 11.54
7 12 20.58 13.92
8 11 14.91 15.73
9 10 11.8 23.6
10 9 10.56 9.67
11 8 9.12 10.75
12 7 21.57 10.71
13 6 10.33 9.83
14 5 11.2 9.0
15 4 12.75 8.0
16 3 45.0 17.0
17 2 8.5 14.0
18 1 0.0 1.0
